\ENCODING=ISO-8859-1
\Problem name: ilog.cplex

Maximize
 obj: 780 x(0)#0 + 690 x(1)#1 + 507 x(2)#2 + 780 x(3)#3 + 726 x(4)#4
      + 602 x(5)#5 + 846 x(6)#6 + 702 x(7)#7 + 394 x(8)#8 + 749 x(9)#9
      + 738 x(10)#10 + 449 x(11)#11 + 545 x(12)#12 + 573 x(13)#13
      + 735 x(14)#14 + 850 x(15)#15 + 802 x(16)#16 + 507 x(17)#17
      + 605 x(18)#18 + 954 x(19)#19 + 816 x(20)#20 + 766 x(21)#21
      + 870 x(22)#22 + 1032 x(23)#23 + 630 x(24)#24 + 475 x(25)#25
      + 719 x(26)#26 + 526 x(27)#27 + 793 x(28)#28 + 907 x(29)#29
      + 569 x(30)#30 + 844 x(31)#31 + 715 x(32)#32 + 799 x(33)#33
      + 500 x(34)#34 + 670 x(35)#35 + 602 x(36)#36 + 837 x(37)#37
      + 625 x(38)#38 + 874 x(39)#39 + 805 x(40)#40 + 936 x(41)#41
      + 1191 x(42)#42 + 734 x(43)#43 + 299 x(44)#44 + 621 x(45)#45
      + 707 x(46)#46 + 555 x(47)#47 + 772 x(48)#48 + 766 x(49)#49
      + 1035 x(50)#50 + 597 x(51)#51 + 859 x(52)#52 + 551 x(53)#53
      + 580 x(54)#54 + 302 x(55)#55 + 1174 x(56)#56 + 993 x(57)#57
      + 774 x(58)#58 + 674 x(59)#59 + 547 x(60)#60 + 969 x(61)#61
      + 467 x(62)#62 + 710 x(63)#63 + 541 x(64)#64 + 636 x(65)#65
      + 739 x(66)#66 + 378 x(67)#67 + 838 x(68)#68 + 793 x(69)#69
      + 1013 x(70)#70 + 718 x(71)#71 + 600 x(72)#72 + 1006 x(73)#73
      + 581 x(74)#74 + 927 x(75)#75 + 416 x(76)#76 + 861 x(77)#77
      + 486 x(78)#78 + 1086 x(79)#79 + 990 x(80)#80 + 555 x(81)#81
      + 971 x(82)#82 + 1120 x(83)#83 + 551 x(84)#84 + 876 x(85)#85
      + 619 x(86)#86 + 787 x(87)#87 + 845 x(88)#88 + 868 x(89)#89
      + 866 x(90)#90 + 897 x(91)#91 + 834 x(92)#92 + 564 x(93)#93
      + 944 x(94)#94 + 642 x(95)#95 + 917 x(96)#96 + 1137 x(97)#97
      + 802 x(98)#98 + 871 x(99)#99 + 867 x(100)#100 + 967 x(101)#101
      + 1180 x(102)#102 + 728 x(103)#103 + 457 x(104)#104 + 893 x(105)#105
      + 625 x(106)#106 + 497 x(107)#107 + 734 x(108)#108 + 1040 x(109)#109
      + 521 x(110)#110 + 599 x(111)#111 + 1082 x(112)#112 + 866 x(113)#113
      + 530 x(114)#114 + 656 x(115)#115 + 780 x(116)#116 + 708 x(117)#117
      + 921 x(118)#118 + 1158 x(119)#119 + 878 x(120)#120 + 447 x(121)#121
      + 583 x(122)#122 + 749 x(123)#123 + 662 x(124)#124 + 469 x(125)#125
      + 496 x(126)#126 + 720 x(127)#127 + 990 x(128)#128 + 578 x(129)#129
      + 546 x(130)#130 + 722 x(131)#131 + 944 x(132)#132 + 763 x(133)#133
      + 727 x(134)#134 + 1282 x(135)#135 + 881 x(136)#136 + 676 x(137)#137
      + 673 x(138)#138 + 650 x(139)#139 + 1086 x(140)#140 + 984 x(141)#141
      + 452 x(142)#142 + 829 x(143)#143 + 572 x(144)#144 + 757 x(145)#145
      + 1163 x(146)#146 + 442 x(147)#147 + 1058 x(148)#148 + 880 x(149)#149
      + 628 x(150)#150 + 869 x(151)#151 + 556 x(152)#152 + 817 x(153)#153
      + 950 x(154)#154 + 473 x(155)#155 + 929 x(156)#156 + 592 x(157)#157
      + 801 x(158)#158 + 771 x(159)#159 + 607 x(160)#160 + 628 x(161)#161
      + 781 x(162)#162 + 740 x(163)#163 + 1128 x(164)#164 + 1047 x(165)#165
      + 937 x(166)#166 + 598 x(167)#167 + 563 x(168)#168 + 544 x(169)#169
      + 529 x(170)#170 + 827 x(171)#171 + 813 x(172)#172 + 728 x(173)#173
      + 1024 x(174)#174 + 682 x(175)#175 + 659 x(176)#176 + 1160 x(177)#177
      + 689 x(178)#178 + 931 x(179)#179 + 731 x(180)#180 + 938 x(181)#181
      + 686 x(182)#182 + 1031 x(183)#183 + 634 x(184)#184 + 993 x(185)#185
      + 638 x(186)#186 + 720 x(187)#187 + 687 x(188)#188 + 841 x(189)#189
      + 886 x(190)#190 + 524 x(191)#191 + 915 x(192)#192 + 628 x(193)#193
      + 510 x(194)#194 + 929 x(195)#195 + 786 x(196)#196 + 1041 x(197)#197
      + 668 x(198)#198 + 567 x(199)#199 + 816 x(200)#200 + 986 x(201)#201
      + 645 x(202)#202 + 615 x(203)#203 + 794 x(204)#204 + 517 x(205)#205
      + 642 x(206)#206 + 283 x(207)#207 + 781 x(208)#208 + 897 x(209)#209
      + 690 x(210)#210 + 547 x(211)#211 + 733 x(212)#212 + 796 x(213)#213
      + 738 x(214)#214 + 752 x(215)#215 + 1002 x(216)#216 + 609 x(217)#217
      + 387 x(218)#218 + 909 x(219)#219 + 907 x(220)#220 + 837 x(221)#221
      + 717 x(222)#222 + 568 x(223)#223 + 647 x(224)#224 + 730 x(225)#225
      + 1037 x(226)#226 + 804 x(227)#227 + 541 x(228)#228 + 635 x(229)#229
      + 589 x(230)#230 + 627 x(231)#231 + 960 x(232)#232 + 1030 x(233)#233
      + 818 x(234)#234 + 844 x(235)#235 + 775 x(236)#236 + 737 x(237)#237
      + 443 x(238)#238 + 718 x(239)#239 + 887 x(240)#240 + 928 x(241)#241
      + 601 x(242)#242 + 1018 x(243)#243 + 803 x(244)#244 + 806 x(245)#245
      + 464 x(246)#246 + 667 x(247)#247 + 762 x(248)#248 + 607 x(249)#249
Subject To
 c1: 844 x(0)#0 + 621 x(1)#1 + 509 x(2)#2 + 7 x(3)#3 + 856 x(4)#4 + 455 x(5)#5
     + 749 x(6)#6 + 174 x(7)#7 + 390 x(8)#8 + 741 x(9)#9 + 604 x(10)#10
     + 79 x(11)#11 + 407 x(12)#12 + 303 x(13)#13 + 734 x(14)#14 + 820 x(15)#15
     + 396 x(16)#16 + 440 x(17)#17 + 767 x(18)#18 + 123 x(19)#19 + 514 x(20)#20
     + 153 x(21)#21 + 839 x(22)#22 + 850 x(23)#23 + 848 x(24)#24 + 605 x(25)#25
     + 400 x(26)#26 + 531 x(27)#27 + 960 x(28)#28 + 746 x(29)#29 + 157 x(30)#30
     + 647 x(31)#31 + 551 x(32)#32 + 741 x(33)#33 + 394 x(34)#34 + 204 x(35)#35
     + 469 x(36)#36 + 210 x(37)#37 + 899 x(38)#38 + 854 x(39)#39 + 363 x(40)#40
     + 222 x(41)#41 + 950 x(42)#42 + 415 x(43)#43 + 72 x(44)#44 + 276 x(45)#45
     + 352 x(46)#46 + 270 x(47)#47 + 857 x(48)#48 + 689 x(49)#49 + 609 x(50)#50
     + 736 x(51)#51 + 460 x(52)#52 + 617 x(53)#53 + 823 x(54)#54 + 114 x(55)#55
     + 899 x(56)#56 + 806 x(57)#57 + 642 x(58)#58 + 409 x(59)#59 + 625 x(60)#60
     + 404 x(61)#61 + 244 x(62)#62 + 568 x(63)#63 + 190 x(64)#64 + 837 x(65)#65
     + 503 x(66)#66 + 919 x(67)#67 + 626 x(68)#68 + 381 x(69)#69 + 324 x(70)#70
     + 11 x(71)#71 + 115 x(72)#72 + 372 x(73)#73 + 183 x(74)#74 + 706 x(75)#75
     + 966 x(76)#76 + 71 x(77)#77 + 491 x(78)#78 + 443 x(79)#79 + 719 x(80)#80
     + 255 x(81)#81 + 471 x(82)#82 + 407 x(83)#83 + 402 x(84)#84 + 660 x(85)#85
     + 925 x(86)#86 + 290 x(87)#87 + 581 x(88)#88 + 873 x(89)#89 + 887 x(90)#90
     + 752 x(91)#91 + 499 x(92)#92 + 935 x(93)#93 + 240 x(94)#94 + 31 x(95)#95
     + 521 x(96)#96 + 669 x(97)#97 + 819 x(98)#98 + 376 x(99)#99
     + 574 x(100)#100 + 511 x(101)#101 + 855 x(102)#102 + 957 x(103)#103
     + 445 x(104)#104 + 706 x(105)#105 + 197 x(106)#106 + 386 x(107)#107
     + 434 x(108)#108 + 888 x(109)#109 + 183 x(110)#110 + 299 x(111)#111
     + 470 x(112)#112 + 440 x(113)#113 + 200 x(114)#114 + 193 x(115)#115
     + 426 x(116)#116 + 179 x(117)#117 + 187 x(118)#118 + 259 x(119)#119
     + 573 x(120)#120 + 246 x(121)#121 + 509 x(122)#122 + 974 x(123)#123
     + 614 x(124)#124 + 275 x(125)#125 + 537 x(126)#126 + 253 x(127)#127
     + 992 x(128)#128 + 622 x(129)#129 + 287 x(130)#130 + 623 x(131)#131
     + 937 x(132)#132 + 80 x(133)#133 + 972 x(134)#134 + 980 x(135)#135
     + 913 x(136)#136 + 54 x(137)#137 + 385 x(138)#138 + 317 x(139)#139
     + 730 x(140)#140 + 558 x(141)#141 + 107 x(142)#142 + 773 x(143)#143
     + 284 x(144)#144 + 638 x(145)#145 + 909 x(146)#146 + 204 x(147)#147
     + 926 x(148)#148 + 469 x(149)#149 + 759 x(150)#150 + 949 x(151)#151
     + 243 x(152)#152 + 846 x(153)#153 + 380 x(154)#154 + 84 x(155)#155
     + 378 x(156)#156 + 457 x(157)#157 + 103 x(158)#158 + 890 x(159)#159
     + 972 x(160)#160 + 24 x(161)#161 + 187 x(162)#162 + 372 x(163)#163
     + 411 x(164)#164 + 505 x(165)#165 + 573 x(166)#166 + 111 x(167)#167
     + 231 x(168)#168 + 32 x(169)#169 + 98 x(170)#170 + 420 x(171)#171
     + 112 x(172)#172 + 617 x(173)#173 + 824 x(174)#174 + 547 x(175)#175
     + 27 x(176)#176 + 721 x(177)#177 + 205 x(178)#178 + 680 x(179)#179
     + 596 x(180)#180 + 995 x(181)#181 + 978 x(182)#182 + 728 x(183)#183
     + 184 x(184)#184 + 681 x(185)#185 + 174 x(186)#186 + 915 x(187)#187
     + 967 x(188)#188 + 984 x(189)#189 + 321 x(190)#190 + 878 x(191)#191
     + 820 x(192)#192 + 57 x(193)#193 + 223 x(194)#194 + 391 x(195)#195
     + 460 x(196)#196 + 529 x(197)#197 + 896 x(198)#198 + 56 x(199)#199
     + 568 x(200)#200 + 736 x(201)#201 + 793 x(202)#202 + 207 x(203)#203
     + 979 x(204)#204 + 2 x(205)#205 + 541 x(206)#206 + 508 x(207)#207
     + 481 x(208)#208 + 112 x(209)#209 + 730 x(210)#210 + 455 x(211)#211
     + 974 x(212)#212 + 387 x(213)#213 + 291 x(214)#214 + 708 x(215)#215
     + 370 x(216)#216 + 310 x(217)#217 + 289 x(218)#218 + 425 x(219)#219
     + 166 x(220)#220 + 992 x(221)#221 + 456 x(222)#222 + 57 x(223)#223
     + 583 x(224)#224 + 924 x(225)#225 + 666 x(226)#226 + 344 x(227)#227
     + 157 x(228)#228 + 905 x(229)#229 + 62 x(230)#230 + 565 x(231)#231
     + 546 x(232)#232 + 887 x(233)#233 + 350 x(234)#234 + 550 x(235)#235
     + 963 x(236)#236 + 817 x(237)#237 + 812 x(238)#238 + 751 x(239)#239
     + 192 x(240)#240 + 555 x(241)#241 + 82 x(242)#242 + 720 x(243)#243
     + 900 x(244)#244 + 448 x(245)#245 + 259 x(246)#246 + 209 x(247)#247
     + 307 x(248)#248 + 773 x(249)#249 <= 96336
 c2: 621 x(0)#0 + 167 x(1)#1 + 62 x(2)#2 + 18 x(3)#3 + 883 x(4)#4 + 315 x(5)#5
     + 463 x(6)#6 + 838 x(7)#7 + 285 x(8)#8 + 415 x(9)#9 + 413 x(10)#10
     + 248 x(11)#11 + 606 x(12)#12 + 832 x(13)#13 + 711 x(14)#14 + 685 x(15)#15
     + 681 x(16)#16 + 217 x(17)#17 + 72 x(18)#18 + 796 x(19)#19 + 835 x(20)#20
     + 654 x(21)#21 + 856 x(22)#22 + 275 x(23)#23 + 430 x(24)#24 + 259 x(25)#25
     + 820 x(26)#26 + 376 x(27)#27 + 90 x(28)#28 + 63 x(29)#29 + 882 x(30)#30
     + 199 x(31)#31 + 868 x(32)#32 + 53 x(33)#33 + 47 x(34)#34 + 302 x(35)#35
     + 164 x(36)#36 + 980 x(37)#37 + 652 x(38)#38 + 873 x(39)#39 + 575 x(40)#40
     + 988 x(41)#41 + 908 x(42)#42 + 110 x(43)#43 + 946 x(44)#44 + 255 x(45)#45
     + 830 x(46)#46 + 649 x(47)#47 + 729 x(48)#48 + 496 x(49)#49 + 155 x(50)#50
     + 150 x(51)#51 + 226 x(52)#52 + 263 x(53)#53 + 87 x(54)#54 + 351 x(55)#55
     + 901 x(56)#56 + 216 x(57)#57 + 952 x(58)#58 + 75 x(59)#59 + 408 x(60)#60
     + 774 x(61)#61 + 207 x(62)#62 + 499 x(63)#63 + 684 x(64)#64 + 587 x(65)#65
     + 353 x(66)#66 + 483 x(67)#67 + 897 x(68)#68 + 356 x(69)#69 + 260 x(70)#70
     + 813 x(71)#71 + 66 x(72)#72 + 734 x(73)#73 + 698 x(74)#74 + 677 x(75)#75
     + 72 x(76)#76 + 748 x(77)#77 + 591 x(78)#78 + 547 x(79)#79 + 167 x(80)#80
     + 107 x(81)#81 + 827 x(82)#82 + 948 x(83)#83 + 715 x(84)#84 + 139 x(85)#85
     + 262 x(86)#86 + 112 x(87)#87 + 424 x(88)#88 + 558 x(89)#89 + 886 x(90)#90
     + 546 x(91)#91 + 644 x(92)#92 + 126 x(93)#93 + 314 x(94)#94 + 833 x(95)#95
     + 525 x(96)#96 + 633 x(97)#97 + 284 x(98)#98 + 65 x(99)#99
     + 170 x(100)#100 + 723 x(101)#101 + 625 x(102)#102 + 529 x(103)#103
     + 548 x(104)#104 + 455 x(105)#105 + 839 x(106)#106 + 834 x(107)#107
     + 696 x(108)#108 + 429 x(109)#109 + 907 x(110)#110 + 4 x(111)#111
     + 699 x(112)#112 + 826 x(113)#113 + 544 x(114)#114 + 200 x(115)#115
     + 372 x(116)#116 + 818 x(117)#117 + 910 x(118)#118 + 669 x(119)#119
     + 119 x(120)#120 + 151 x(121)#121 + 216 x(122)#122 + 260 x(123)#123
     + 183 x(124)#124 + 343 x(125)#125 + 460 x(126)#126 + 218 x(127)#127
     + 577 x(128)#128 + 646 x(129)#129 + 216 x(130)#130 + 561 x(131)#131
     + 649 x(132)#132 + 873 x(133)#133 + 234 x(134)#134 + 909 x(135)#135
     + 309 x(136)#136 + 773 x(137)#137 + 532 x(138)#138 + 871 x(139)#139
     + 571 x(140)#140 + 163 x(141)#141 + 609 x(142)#142 + 355 x(143)#143
     + 756 x(144)#144 + 21 x(145)#145 + 834 x(146)#146 + 314 x(147)#147
     + 453 x(148)#148 + 277 x(149)#149 + 14 x(150)#150 + 223 x(151)#151
     + 441 x(152)#152 + 449 x(153)#153 + 677 x(154)#154 + 322 x(155)#155
     + 521 x(156)#156 + 393 x(157)#157 + 588 x(158)#158 + 150 x(159)#159
     + 54 x(160)#160 + 444 x(161)#161 + 830 x(162)#162 + 578 x(163)#163
     + 876 x(164)#164 + 501 x(165)#165 + 799 x(166)#166 + 394 x(167)#167
     + 902 x(168)#168 + 210 x(169)#169 + 512 x(170)#170 + 475 x(171)#171
     + 169 x(172)#172 + 254 x(173)#173 + 984 x(174)#174 + 561 x(175)#175
     + 803 x(176)#176 + 955 x(177)#177 + 65 x(178)#178 + 401 x(179)#179
     + 96 x(180)#180 + 2 x(181)#181 + 246 x(182)#182 + 685 x(183)#183
     + 807 x(184)#184 + 966 x(185)#185 + 542 x(186)#186 + 771 x(187)#187
     + 265 x(188)#188 + 987 x(189)#189 + 562 x(190)#190 + 444 x(191)#191
     + 901 x(192)#192 + 202 x(193)#193 + 877 x(194)#194 + 661 x(195)#195
     + 276 x(196)#196 + 353 x(197)#197 + 720 x(198)#198 + 207 x(199)#199
     + 375 x(200)#200 + 340 x(201)#201 + 818 x(202)#202 + 503 x(203)#203
     + 538 x(204)#204 + 286 x(205)#205 + 10 x(206)#206 + 525 x(207)#207
     + 799 x(208)#208 + 950 x(209)#209 + 141 x(210)#210 + 437 x(211)#211
     + 779 x(212)#212 + 690 x(213)#213 + 734 x(214)#214 + 592 x(215)#215
     + 897 x(216)#216 + 108 x(217)#217 + 385 x(218)#218 + 815 x(219)#219
     + 672 x(220)#220 + 743 x(221)#221 + 470 x(222)#222 + 468 x(223)#223
     + 93 x(224)#224 + 919 x(225)#225 + 717 x(226)#226 + 985 x(227)#227
     + 456 x(228)#228 + 612 x(229)#229 + 85 x(230)#230 + 125 x(231)#231
     + 808 x(232)#232 + 869 x(233)#233 + 101 x(234)#234 + 978 x(235)#235
     + 141 x(236)#236 + 747 x(237)#237 + 350 x(238)#238 + 776 x(239)#239
     + 970 x(240)#240 + 453 x(241)#241 + 807 x(242)#242 + 335 x(243)#243
     + 166 x(244)#244 + 549 x(245)#245 + 63 x(246)#246 + 190 x(247)#247
     + 655 x(248)#248 + 644 x(249)#249 <= 94103
 c3: 392 x(0)#0 + 527 x(1)#1 + 878 x(2)#2 + 859 x(3)#3 + 88 x(4)#4 + 71 x(5)#5
     + 104 x(6)#6 + 957 x(7)#7 + 710 x(8)#8 + 198 x(9)#9 + 833 x(10)#10
     + 205 x(11)#11 + 207 x(12)#12 + 171 x(13)#13 + 241 x(14)#14 + 91 x(15)#15
     + 310 x(16)#16 + 629 x(17)#17 + 19 x(18)#18 + 941 x(19)#19 + 661 x(20)#20
     + 89 x(21)#21 + 802 x(22)#22 + 271 x(23)#23 + 878 x(24)#24 + 174 x(25)#25
     + 499 x(26)#26 + 459 x(27)#27 + 968 x(28)#28 + 818 x(29)#29 + 520 x(30)#30
     + 399 x(31)#31 + 282 x(32)#32 + 218 x(33)#33 + 666 x(34)#34 + 673 x(35)#35
     + 648 x(36)#36 + 188 x(37)#37 + 668 x(38)#38 + 802 x(39)#39 + 361 x(40)#40
     + 581 x(41)#41 + 775 x(42)#42 + 269 x(43)#43 + 317 x(44)#44 + 458 x(45)#45
     + 281 x(46)#46 + 663 x(47)#47 + 702 x(48)#48 + 511 x(49)#49 + 932 x(50)#50
     + 76 x(51)#51 + 749 x(52)#52 + 256 x(53)#53 + 280 x(54)#54 + 270 x(55)#55
     + 474 x(56)#56 + 435 x(57)#57 + 200 x(58)#58 + 580 x(59)#59 + 176 x(60)#60
     + 594 x(61)#61 + 733 x(62)#62 + 91 x(63)#63 + 615 x(64)#64 + 297 x(65)#65
     + 701 x(66)#66 + 31 x(67)#67 + 303 x(68)#68 + 308 x(69)#69 + 785 x(70)#70
     + 768 x(71)#71 + 940 x(72)#72 + 582 x(73)#73 + 225 x(74)#74 + 685 x(75)#75
     + 102 x(76)#76 + 113 x(77)#77 + 264 x(78)#78 + 833 x(79)#79 + 606 x(80)#80
     + 920 x(81)#81 + 448 x(82)#82 + 872 x(83)#83 + 344 x(84)#84 + 926 x(85)#85
     + 651 x(86)#86 + 976 x(87)#87 + 555 x(88)#88 + 533 x(89)#89 + 38 x(90)#90
     + 744 x(91)#91 + 105 x(92)#92 + 422 x(93)#93 + 494 x(94)#94 + 497 x(95)#95
     + 23 x(96)#96 + 875 x(97)#97 + 759 x(98)#98 + 526 x(99)#99
     + 660 x(100)#100 + 166 x(101)#101 + 952 x(102)#102 + 293 x(103)#103
     + 329 x(104)#104 + 280 x(105)#105 + 313 x(106)#106 + 307 x(107)#107
     + 173 x(108)#108 + 816 x(109)#109 + 24 x(110)#110 + 209 x(111)#111
     + 957 x(112)#112 + 17 x(113)#113 + 318 x(114)#114 + 489 x(115)#115
     + 701 x(116)#116 + 458 x(117)#117 + 660 x(118)#118 + 974 x(119)#119
     + 385 x(120)#120 + 285 x(121)#121 + 196 x(122)#122 + 294 x(123)#123
     + 323 x(124)#124 + 455 x(125)#125 + 266 x(126)#126 + 57 x(127)#127
     + 674 x(128)#128 + 465 x(129)#129 + 495 x(130)#130 + 191 x(131)#131
     + 15 x(132)#132 + 50 x(133)#133 + 161 x(134)#134 + 874 x(135)#135
     + 943 x(136)#136 + 227 x(137)#137 + 740 x(138)#138 + 432 x(139)#139
     + 359 x(140)#140 + 496 x(141)#141 + 423 x(142)#142 + 759 x(143)#143
     + 995 x(144)#144 + 434 x(145)#145 + 870 x(146)#146 + 135 x(147)#147
     + 692 x(148)#148 + 837 x(149)#149 + 315 x(150)#150 + 977 x(151)#151
     + 69 x(152)#152 + 906 x(153)#153 + 740 x(154)#154 + 320 x(155)#155
     + 156 x(156)#156 + 468 x(157)#157 + 546 x(158)#158 + 267 x(159)#159
     + 113 x(160)#160 + 978 x(161)#161 + 982 x(162)#162 + 568 x(163)#163
     + 656 x(164)#164 + 801 x(165)#165 + 436 x(166)#166 + 136 x(167)#167
     + 38 x(168)#168 + 376 x(169)#169 + 397 x(170)#170 + 636 x(171)#171
     + 181 x(172)#172 + 936 x(173)#173 + 54 x(174)#174 + 507 x(175)#175
     + 728 x(176)#176 + 898 x(177)#177 + 618 x(178)#178 + 921 x(179)#179
     + 181 x(180)#180 + 990 x(181)#181 + 655 x(182)#182 + 751 x(183)#183
     + 14 x(184)#184 + 316 x(185)#185 + 75 x(186)#186 + 581 x(187)#187
     + 86 x(188)#188 + 949 x(189)#189 + 558 x(190)#190 + 215 x(191)#191
     + 419 x(192)#192 + 799 x(193)#193 + 404 x(194)#194 + 642 x(195)#195
     + 487 x(196)#196 + 43 x(197)#197 + 64 x(198)#198 + 829 x(199)#199
     + 175 x(200)#200 + 542 x(201)#201 + 282 x(202)#202 + 704 x(203)#203
     + 616 x(204)#204 + 401 x(205)#205 + 308 x(206)#206 + 141 x(207)#207
     + 308 x(208)#208 + 841 x(209)#209 + 952 x(210)#210 + 705 x(211)#211
     + 953 x(212)#212 + 470 x(213)#213 + 682 x(214)#214 + 729 x(215)#215
     + 932 x(216)#216 + 300 x(217)#217 + 28 x(218)#218 + 116 x(219)#219
     + 48 x(220)#220 + 707 x(221)#221 + 557 x(222)#222 + 885 x(223)#223
     + 744 x(224)#224 + 639 x(225)#225 + 825 x(226)#226 + 909 x(227)#227
     + 941 x(228)#228 + 183 x(229)#229 + 62 x(230)#230 + 530 x(231)#231
     + 520 x(232)#232 + 13 x(233)#233 + 276 x(234)#234 + 858 x(235)#235
     + 559 x(236)#236 + 474 x(237)#237 + 306 x(238)#238 + 405 x(239)#239
     + 424 x(240)#240 + 864 x(241)#241 + 377 x(242)#242 + 621 x(243)#243
     + 15 x(244)#244 + 540 x(245)#245 + 193 x(246)#246 + 167 x(247)#247
     + 911 x(248)#248 + 345 x(249)#249 <= 90925
 c4: 301 x(0)#0 + 639 x(1)#1 + 665 x(2)#2 + 102 x(3)#3 + 64 x(4)#4 + 317 x(5)#5
     + 80 x(6)#6 + 450 x(7)#7 + 188 x(8)#8 + 73 x(9)#9 + 65 x(10)#10
     + 413 x(11)#11 + 478 x(12)#12 + 639 x(13)#13 + 11 x(14)#14 + 710 x(15)#15
     + 139 x(16)#16 + 371 x(17)#17 + 362 x(18)#18 + 756 x(19)#19 + 432 x(20)#20
     + 403 x(21)#21 + 67 x(22)#22 + 966 x(23)#23 + 508 x(24)#24 + 943 x(25)#25
     + 527 x(26)#26 + 89 x(27)#27 + 255 x(28)#28 + 145 x(29)#29 + 807 x(30)#30
     + 340 x(31)#31 + 711 x(32)#32 + 908 x(33)#33 + 20 x(34)#34 + 509 x(35)#35
     + 327 x(36)#36 + 446 x(37)#37 + 187 x(38)#38 + 49 x(39)#39 + 86 x(40)#40
     + 814 x(41)#41 + 667 x(42)#42 + 478 x(43)#43 + 87 x(44)#44 + 220 x(45)#45
     + 959 x(46)#46 + 489 x(47)#47 + 278 x(48)#48 + 419 x(49)#49 + 833 x(50)#50
     + 934 x(51)#51 + 566 x(52)#52 + 135 x(53)#53 + 605 x(54)#54 + 315 x(55)#55
     + 915 x(56)#56 + 989 x(57)#57 + 873 x(58)#58 + 484 x(59)#59 + 122 x(60)#60
     + 407 x(61)#61 + 549 x(62)#62 + 572 x(63)#63 + 258 x(64)#64 + 589 x(65)#65
     + 646 x(66)#66 + 88 x(67)#67 + 857 x(68)#68 + 266 x(69)#69 + 970 x(70)#70
     + 955 x(71)#71 + 758 x(72)#72 + 788 x(73)#73 + 707 x(74)#74 + 905 x(75)#75
     + 234 x(76)#76 + 393 x(77)#77 + 444 x(78)#78 + 605 x(79)#79 + 982 x(80)#80
     + 457 x(81)#81 + 469 x(82)#82 + 409 x(83)#83 + 619 x(84)#84 + 120 x(85)#85
     + 174 x(86)#86 + 480 x(87)#87 + 971 x(88)#88 + 520 x(89)#89 + 893 x(90)#90
     + 645 x(91)#91 + 387 x(92)#92 + 217 x(93)#93 + 439 x(94)#94 + 34 x(95)#95
     + 517 x(96)#96 + 624 x(97)#97 + x(98)#98 + 320 x(99)#99 + 967 x(100)#100
     + 896 x(101)#101 + 100 x(102)#102 + 553 x(103)#103 + 21 x(104)#104
     + 627 x(105)#105 + 137 x(106)#106 + 7 x(107)#107 + 687 x(108)#108
     + 638 x(109)#109 + 154 x(110)#110 + 714 x(111)#111 + 651 x(112)#112
     + 151 x(113)#113 + 452 x(114)#114 + 204 x(115)#115 + 1000 x(116)#116
     + 312 x(117)#117 + 982 x(118)#118 + 965 x(119)#119 + 239 x(120)#120
     + 809 x(121)#121 + 347 x(122)#122 + 509 x(123)#123 + 602 x(124)#124
     + 271 x(125)#125 + 15 x(126)#126 + 581 x(127)#127 + 713 x(128)#128
     + 166 x(129)#129 + 763 x(130)#130 + 468 x(131)#131 + 161 x(132)#132
     + 815 x(133)#133 + 89 x(134)#134 + 698 x(135)#135 + 875 x(136)#136
     + 706 x(137)#137 + 294 x(138)#138 + 647 x(139)#139 + 782 x(140)#140
     + 795 x(141)#141 + 314 x(142)#142 + 177 x(143)#143 + 332 x(144)#144
     + 604 x(145)#145 + 424 x(146)#146 + 55 x(147)#147 + 381 x(148)#148
     + 717 x(149)#149 + 78 x(150)#150 + 673 x(151)#151 + 621 x(152)#152
     + 566 x(153)#153 + 452 x(154)#154 + 867 x(155)#155 + 582 x(156)#156
     + 320 x(157)#157 + 956 x(158)#158 + 5 x(159)#159 + 486 x(160)#160
     + 575 x(161)#161 + 766 x(162)#162 + 44 x(163)#163 + 742 x(164)#164
     + 329 x(165)#165 + 753 x(166)#166 + 111 x(167)#167 + 432 x(168)#168
     + 611 x(169)#169 + 736 x(170)#170 + 705 x(171)#171 + 350 x(172)#172
     + 63 x(173)#173 + 522 x(174)#174 + 985 x(175)#175 + 722 x(176)#176
     + 968 x(177)#177 + 712 x(178)#178 + 555 x(179)#179 + 161 x(180)#180
     + 937 x(181)#181 + 581 x(182)#182 + 676 x(183)#183 + 206 x(184)#184
     + 480 x(185)#185 + 879 x(186)#186 + 224 x(187)#187 + 176 x(188)#188
     + 478 x(189)#189 + 247 x(190)#190 + 267 x(191)#191 + 51 x(192)#192
     + 956 x(193)#193 + 65 x(194)#194 + 649 x(195)#195 + 512 x(196)#196
     + 868 x(197)#197 + 516 x(198)#198 + 447 x(199)#199 + 683 x(200)#200
     + 901 x(201)#201 + 17 x(202)#202 + 382 x(203)#203 + 720 x(204)#204
     + 468 x(205)#205 + 380 x(206)#206 + 67 x(207)#207 + 861 x(208)#208
     + 66 x(209)#209 + 332 x(210)#210 + 775 x(211)#211 + 541 x(212)#212
     + 698 x(213)#213 + 682 x(214)#214 + 983 x(215)#215 + 658 x(216)#216
     + 519 x(217)#217 + 220 x(218)#218 + 939 x(219)#219 + 728 x(220)#220
     + 216 x(221)#221 + 406 x(222)#222 + 263 x(223)#223 + 41 x(224)#224
     + 387 x(225)#225 + 941 x(226)#226 + 131 x(227)#227 + 532 x(228)#228
     + 690 x(229)#229 + 571 x(230)#230 + 530 x(231)#231 + 269 x(232)#232
     + 879 x(233)#233 + 304 x(234)#234 + 893 x(235)#235 + 251 x(236)#236
     + 161 x(237)#237 + 95 x(238)#238 + 214 x(239)#239 + 972 x(240)#240
     + 468 x(241)#241 + 525 x(242)#242 + 876 x(243)#243 + 217 x(244)#244
     + 858 x(245)#245 + 880 x(246)#246 + 465 x(247)#247 + 56 x(248)#248
     + 555 x(249)#249 <= 91871
 c5: 291 x(0)#0 + 852 x(1)#1 + 309 x(2)#2 + 829 x(3)#3 + 563 x(4)#4
     + 751 x(5)#5 + 504 x(6)#6 + 693 x(7)#7 + 56 x(8)#8 + 425 x(9)#9
     + 365 x(10)#10 + 177 x(11)#11 + 716 x(12)#12 + 353 x(13)#13 + 710 x(14)#14
     + 291 x(15)#15 + 758 x(16)#16 + 239 x(17)#17 + 32 x(18)#18 + 117 x(19)#19
     + 484 x(20)#20 + 458 x(21)#21 + 856 x(22)#22 + 716 x(23)#23 + 217 x(24)#24
     + 265 x(25)#25 + 612 x(26)#26 + 791 x(27)#27 + 508 x(28)#28 + 699 x(29)#29
     + 361 x(30)#30 + 972 x(31)#31 + 828 x(32)#32 + 124 x(33)#33 + 792 x(34)#34
     + 511 x(35)#35 + 917 x(36)#36 + 198 x(37)#37 + 296 x(38)#38 + 138 x(39)#39
     + 300 x(40)#40 + 715 x(41)#41 + 369 x(42)#42 + 306 x(43)#43 + 57 x(44)#44
     + 308 x(45)#45 + 637 x(46)#46 + 159 x(47)#47 + 457 x(48)#48 + 971 x(49)#49
     + 415 x(50)#50 + 442 x(51)#51 + 593 x(52)#52 + 928 x(53)#53 + 729 x(54)#54
     + 100 x(55)#55 + 490 x(56)#56 + 671 x(57)#57 + 951 x(58)#58 + 306 x(59)#59
     + 671 x(60)#60 + 428 x(61)#61 + 413 x(62)#62 + 130 x(63)#63 + 24 x(64)#64
     + 467 x(65)#65 + 545 x(66)#66 + 276 x(67)#67 + 436 x(68)#68 + 465 x(69)#69
     + 456 x(70)#70 + 497 x(71)#71 + 784 x(72)#72 + 970 x(73)#73 + 329 x(74)#74
     + 413 x(75)#75 + 305 x(76)#76 + 953 x(77)#77 + 99 x(78)#78 + 948 x(79)#79
     + 475 x(80)#80 + 194 x(81)#81 + 784 x(82)#82 + 830 x(83)#83 + 616 x(84)#84
     + 456 x(85)#85 + 454 x(86)#86 + 346 x(87)#87 + 415 x(88)#88 + 605 x(89)#89
     + 418 x(90)#90 + 267 x(91)#91 + 386 x(92)#92 + 28 x(93)#93 + 931 x(94)#94
     + 133 x(95)#95 + 757 x(96)#96 + 840 x(97)#97 + 663 x(98)#98 + 734 x(99)#99
     + 232 x(100)#100 + 818 x(101)#101 + 904 x(102)#102 + 220 x(103)#103
     + 772 x(104)#104 + 245 x(105)#105 + 365 x(106)#106 + 659 x(107)#107
     + 404 x(108)#108 + 251 x(109)#109 + 488 x(110)#110 + 99 x(111)#111
     + 267 x(112)#112 + 795 x(113)#113 + 18 x(114)#114 + 338 x(115)#115
     + 511 x(116)#116 + 41 x(117)#117 + 9 x(118)#118 + 927 x(119)#119
     + 752 x(120)#120 + 595 x(121)#121 + 532 x(122)#122 + 898 x(123)#123
     + 900 x(124)#124 + 812 x(125)#125 + 748 x(126)#126 + 525 x(127)#127
     + 133 x(128)#128 + 291 x(129)#129 + 811 x(130)#130 + 619 x(131)#131
     + 953 x(132)#132 + 457 x(133)#133 + 442 x(134)#134 + 570 x(135)#135
     + 984 x(136)#136 + 845 x(137)#137 + 324 x(138)#138 + 562 x(139)#139
     + 979 x(140)#140 + 863 x(141)#141 + 612 x(142)#142 + 794 x(143)#143
     + 281 x(144)#144 + 911 x(145)#145 + 958 x(146)#146 + 847 x(147)#147
     + 384 x(148)#148 + 315 x(149)#149 + 480 x(150)#150 + 291 x(151)#151
     + 181 x(152)#152 + 490 x(153)#153 + 470 x(154)#154 + 551 x(155)#155
     + 837 x(156)#156 + 491 x(157)#157 + 880 x(158)#158 + 361 x(159)#159
     + 176 x(160)#160 + 117 x(161)#161 + 845 x(162)#162 + 492 x(163)#163
     + 784 x(164)#164 + 981 x(165)#165 + 212 x(166)#166 + 947 x(167)#167
     + 596 x(168)#168 + 857 x(169)#169 + 551 x(170)#170 + 539 x(171)#171
     + 885 x(172)#172 + 87 x(173)#173 + 390 x(174)#174 + 426 x(175)#175
     + 885 x(176)#176 + 765 x(177)#177 + 548 x(178)#178 + 363 x(179)#179
     + 570 x(180)#180 + 847 x(181)#181 + 371 x(182)#182 + 399 x(183)#183
     + 375 x(184)#184 + 153 x(185)#185 + 512 x(186)#186 + 634 x(187)#187
     + 125 x(188)#188 + 482 x(189)#189 + 455 x(190)#190 + 139 x(191)#191
     + 596 x(192)#192 + 933 x(193)#193 + 421 x(194)#194 + 42 x(195)#195
     + 284 x(196)#196 + 926 x(197)#197 + 543 x(198)#198 + 30 x(199)#199
     + 241 x(200)#200 + 690 x(201)#201 + 422 x(202)#202 + 294 x(203)#203
     + 585 x(204)#204 + 387 x(205)#205 + 158 x(206)#206 + 131 x(207)#207
     + 903 x(208)#208 + 365 x(209)#209 + 387 x(210)#210 + 255 x(211)#211
     + 14 x(212)#212 + 372 x(213)#213 + 299 x(214)#214 + 113 x(215)#215
     + 389 x(216)#216 + x(217)#217 + 362 x(218)#218 + 451 x(219)#219
     + 996 x(220)#220 + 297 x(221)#221 + 176 x(222)#222 + 98 x(223)#223
     + 330 x(224)#224 + 604 x(225)#225 + 690 x(226)#226 + 547 x(227)#227
     + 316 x(228)#228 + 229 x(229)#229 + 643 x(230)#230 + 709 x(231)#231
     + 702 x(232)#232 + 535 x(233)#233 + 808 x(234)#234 + 426 x(235)#235
     + 385 x(236)#236 + 394 x(237)#237 + 62 x(238)#238 + 21 x(239)#239
     + 848 x(240)#240 + 968 x(241)#241 + 180 x(242)#242 + 715 x(243)#243
     + 266 x(244)#244 + 258 x(245)#245 + 296 x(246)#246 + 578 x(247)#247
     + 39 x(248)#248 + 233 x(249)#249 <= 92372
Bounds
 0 <= x(0)#0 <= 1
 0 <= x(1)#1 <= 1
 0 <= x(2)#2 <= 1
 0 <= x(3)#3 <= 1
 0 <= x(4)#4 <= 1
 0 <= x(5)#5 <= 1
 0 <= x(6)#6 <= 1
 0 <= x(7)#7 <= 1
 0 <= x(8)#8 <= 1
 0 <= x(9)#9 <= 1
 0 <= x(10)#10 <= 1
 0 <= x(11)#11 <= 1
 0 <= x(12)#12 <= 1
 0 <= x(13)#13 <= 1
 0 <= x(14)#14 <= 1
 0 <= x(15)#15 <= 1
 0 <= x(16)#16 <= 1
 0 <= x(17)#17 <= 1
 0 <= x(18)#18 <= 1
 0 <= x(19)#19 <= 1
 0 <= x(20)#20 <= 1
 0 <= x(21)#21 <= 1
 0 <= x(22)#22 <= 1
 0 <= x(23)#23 <= 1
 0 <= x(24)#24 <= 1
 0 <= x(25)#25 <= 1
 0 <= x(26)#26 <= 1
 0 <= x(27)#27 <= 1
 0 <= x(28)#28 <= 1
 0 <= x(29)#29 <= 1
 0 <= x(30)#30 <= 1
 0 <= x(31)#31 <= 1
 0 <= x(32)#32 <= 1
 0 <= x(33)#33 <= 1
 0 <= x(34)#34 <= 1
 0 <= x(35)#35 <= 1
 0 <= x(36)#36 <= 1
 0 <= x(37)#37 <= 1
 0 <= x(38)#38 <= 1
 0 <= x(39)#39 <= 1
 0 <= x(40)#40 <= 1
 0 <= x(41)#41 <= 1
 0 <= x(42)#42 <= 1
 0 <= x(43)#43 <= 1
 0 <= x(44)#44 <= 1
 0 <= x(45)#45 <= 1
 0 <= x(46)#46 <= 1
 0 <= x(47)#47 <= 1
 0 <= x(48)#48 <= 1
 0 <= x(49)#49 <= 1
 0 <= x(50)#50 <= 1
 0 <= x(51)#51 <= 1
 0 <= x(52)#52 <= 1
 0 <= x(53)#53 <= 1
 0 <= x(54)#54 <= 1
 0 <= x(55)#55 <= 1
 0 <= x(56)#56 <= 1
 0 <= x(57)#57 <= 1
 0 <= x(58)#58 <= 1
 0 <= x(59)#59 <= 1
 0 <= x(60)#60 <= 1
 0 <= x(61)#61 <= 1
 0 <= x(62)#62 <= 1
 0 <= x(63)#63 <= 1
 0 <= x(64)#64 <= 1
 0 <= x(65)#65 <= 1
 0 <= x(66)#66 <= 1
 0 <= x(67)#67 <= 1
 0 <= x(68)#68 <= 1
 0 <= x(69)#69 <= 1
 0 <= x(70)#70 <= 1
 0 <= x(71)#71 <= 1
 0 <= x(72)#72 <= 1
 0 <= x(73)#73 <= 1
 0 <= x(74)#74 <= 1
 0 <= x(75)#75 <= 1
 0 <= x(76)#76 <= 1
 0 <= x(77)#77 <= 1
 0 <= x(78)#78 <= 1
 0 <= x(79)#79 <= 1
 0 <= x(80)#80 <= 1
 0 <= x(81)#81 <= 1
 0 <= x(82)#82 <= 1
 0 <= x(83)#83 <= 1
 0 <= x(84)#84 <= 1
 0 <= x(85)#85 <= 1
 0 <= x(86)#86 <= 1
 0 <= x(87)#87 <= 1
 0 <= x(88)#88 <= 1
 0 <= x(89)#89 <= 1
 0 <= x(90)#90 <= 1
 0 <= x(91)#91 <= 1
 0 <= x(92)#92 <= 1
 0 <= x(93)#93 <= 1
 0 <= x(94)#94 <= 1
 0 <= x(95)#95 <= 1
 0 <= x(96)#96 <= 1
 0 <= x(97)#97 <= 1
 0 <= x(98)#98 <= 1
 0 <= x(99)#99 <= 1
 0 <= x(100)#100 <= 1
 0 <= x(101)#101 <= 1
 0 <= x(102)#102 <= 1
 0 <= x(103)#103 <= 1
 0 <= x(104)#104 <= 1
 0 <= x(105)#105 <= 1
 0 <= x(106)#106 <= 1
 0 <= x(107)#107 <= 1
 0 <= x(108)#108 <= 1
 0 <= x(109)#109 <= 1
 0 <= x(110)#110 <= 1
 0 <= x(111)#111 <= 1
 0 <= x(112)#112 <= 1
 0 <= x(113)#113 <= 1
 0 <= x(114)#114 <= 1
 0 <= x(115)#115 <= 1
 0 <= x(116)#116 <= 1
 0 <= x(117)#117 <= 1
 0 <= x(118)#118 <= 1
 0 <= x(119)#119 <= 1
 0 <= x(120)#120 <= 1
 0 <= x(121)#121 <= 1
 0 <= x(122)#122 <= 1
 0 <= x(123)#123 <= 1
 0 <= x(124)#124 <= 1
 0 <= x(125)#125 <= 1
 0 <= x(126)#126 <= 1
 0 <= x(127)#127 <= 1
 0 <= x(128)#128 <= 1
 0 <= x(129)#129 <= 1
 0 <= x(130)#130 <= 1
 0 <= x(131)#131 <= 1
 0 <= x(132)#132 <= 1
 0 <= x(133)#133 <= 1
 0 <= x(134)#134 <= 1
 0 <= x(135)#135 <= 1
 0 <= x(136)#136 <= 1
 0 <= x(137)#137 <= 1
 0 <= x(138)#138 <= 1
 0 <= x(139)#139 <= 1
 0 <= x(140)#140 <= 1
 0 <= x(141)#141 <= 1
 0 <= x(142)#142 <= 1
 0 <= x(143)#143 <= 1
 0 <= x(144)#144 <= 1
 0 <= x(145)#145 <= 1
 0 <= x(146)#146 <= 1
 0 <= x(147)#147 <= 1
 0 <= x(148)#148 <= 1
 0 <= x(149)#149 <= 1
 0 <= x(150)#150 <= 1
 0 <= x(151)#151 <= 1
 0 <= x(152)#152 <= 1
 0 <= x(153)#153 <= 1
 0 <= x(154)#154 <= 1
 0 <= x(155)#155 <= 1
 0 <= x(156)#156 <= 1
 0 <= x(157)#157 <= 1
 0 <= x(158)#158 <= 1
 0 <= x(159)#159 <= 1
 0 <= x(160)#160 <= 1
 0 <= x(161)#161 <= 1
 0 <= x(162)#162 <= 1
 0 <= x(163)#163 <= 1
 0 <= x(164)#164 <= 1
 0 <= x(165)#165 <= 1
 0 <= x(166)#166 <= 1
 0 <= x(167)#167 <= 1
 0 <= x(168)#168 <= 1
 0 <= x(169)#169 <= 1
 0 <= x(170)#170 <= 1
 0 <= x(171)#171 <= 1
 0 <= x(172)#172 <= 1
 0 <= x(173)#173 <= 1
 0 <= x(174)#174 <= 1
 0 <= x(175)#175 <= 1
 0 <= x(176)#176 <= 1
 0 <= x(177)#177 <= 1
 0 <= x(178)#178 <= 1
 0 <= x(179)#179 <= 1
 0 <= x(180)#180 <= 1
 0 <= x(181)#181 <= 1
 0 <= x(182)#182 <= 1
 0 <= x(183)#183 <= 1
 0 <= x(184)#184 <= 1
 0 <= x(185)#185 <= 1
 0 <= x(186)#186 <= 1
 0 <= x(187)#187 <= 1
 0 <= x(188)#188 <= 1
 0 <= x(189)#189 <= 1
 0 <= x(190)#190 <= 1
 0 <= x(191)#191 <= 1
 0 <= x(192)#192 <= 1
 0 <= x(193)#193 <= 1
 0 <= x(194)#194 <= 1
 0 <= x(195)#195 <= 1
 0 <= x(196)#196 <= 1
 0 <= x(197)#197 <= 1
 0 <= x(198)#198 <= 1
 0 <= x(199)#199 <= 1
 0 <= x(200)#200 <= 1
 0 <= x(201)#201 <= 1
 0 <= x(202)#202 <= 1
 0 <= x(203)#203 <= 1
 0 <= x(204)#204 <= 1
 0 <= x(205)#205 <= 1
 0 <= x(206)#206 <= 1
 0 <= x(207)#207 <= 1
 0 <= x(208)#208 <= 1
 0 <= x(209)#209 <= 1
 0 <= x(210)#210 <= 1
 0 <= x(211)#211 <= 1
 0 <= x(212)#212 <= 1
 0 <= x(213)#213 <= 1
 0 <= x(214)#214 <= 1
 0 <= x(215)#215 <= 1
 0 <= x(216)#216 <= 1
 0 <= x(217)#217 <= 1
 0 <= x(218)#218 <= 1
 0 <= x(219)#219 <= 1
 0 <= x(220)#220 <= 1
 0 <= x(221)#221 <= 1
 0 <= x(222)#222 <= 1
 0 <= x(223)#223 <= 1
 0 <= x(224)#224 <= 1
 0 <= x(225)#225 <= 1
 0 <= x(226)#226 <= 1
 0 <= x(227)#227 <= 1
 0 <= x(228)#228 <= 1
 0 <= x(229)#229 <= 1
 0 <= x(230)#230 <= 1
 0 <= x(231)#231 <= 1
 0 <= x(232)#232 <= 1
 0 <= x(233)#233 <= 1
 0 <= x(234)#234 <= 1
 0 <= x(235)#235 <= 1
 0 <= x(236)#236 <= 1
 0 <= x(237)#237 <= 1
 0 <= x(238)#238 <= 1
 0 <= x(239)#239 <= 1
 0 <= x(240)#240 <= 1
 0 <= x(241)#241 <= 1
 0 <= x(242)#242 <= 1
 0 <= x(243)#243 <= 1
 0 <= x(244)#244 <= 1
 0 <= x(245)#245 <= 1
 0 <= x(246)#246 <= 1
 0 <= x(247)#247 <= 1
 0 <= x(248)#248 <= 1
 0 <= x(249)#249 <= 1
Generals
 x(0)#0  x(1)#1  x(2)#2  x(3)#3  x(4)#4  x(5)#5  x(6)#6  x(7)#7  x(8)#8 
 x(9)#9  x(10)#10  x(11)#11  x(12)#12  x(13)#13  x(14)#14  x(15)#15  x(16)#16 
 x(17)#17  x(18)#18  x(19)#19  x(20)#20  x(21)#21  x(22)#22  x(23)#23 
 x(24)#24  x(25)#25  x(26)#26  x(27)#27  x(28)#28  x(29)#29  x(30)#30 
 x(31)#31  x(32)#32  x(33)#33  x(34)#34  x(35)#35  x(36)#36  x(37)#37 
 x(38)#38  x(39)#39  x(40)#40  x(41)#41  x(42)#42  x(43)#43  x(44)#44 
 x(45)#45  x(46)#46  x(47)#47  x(48)#48  x(49)#49  x(50)#50  x(51)#51 
 x(52)#52  x(53)#53  x(54)#54  x(55)#55  x(56)#56  x(57)#57  x(58)#58 
 x(59)#59  x(60)#60  x(61)#61  x(62)#62  x(63)#63  x(64)#64  x(65)#65 
 x(66)#66  x(67)#67  x(68)#68  x(69)#69  x(70)#70  x(71)#71  x(72)#72 
 x(73)#73  x(74)#74  x(75)#75  x(76)#76  x(77)#77  x(78)#78  x(79)#79 
 x(80)#80  x(81)#81  x(82)#82  x(83)#83  x(84)#84  x(85)#85  x(86)#86 
 x(87)#87  x(88)#88  x(89)#89  x(90)#90  x(91)#91  x(92)#92  x(93)#93 
 x(94)#94  x(95)#95  x(96)#96  x(97)#97  x(98)#98  x(99)#99  x(100)#100 
 x(101)#101  x(102)#102  x(103)#103  x(104)#104  x(105)#105  x(106)#106 
 x(107)#107  x(108)#108  x(109)#109  x(110)#110  x(111)#111  x(112)#112 
 x(113)#113  x(114)#114  x(115)#115  x(116)#116  x(117)#117  x(118)#118 
 x(119)#119  x(120)#120  x(121)#121  x(122)#122  x(123)#123  x(124)#124 
 x(125)#125  x(126)#126  x(127)#127  x(128)#128  x(129)#129  x(130)#130 
 x(131)#131  x(132)#132  x(133)#133  x(134)#134  x(135)#135  x(136)#136 
 x(137)#137  x(138)#138  x(139)#139  x(140)#140  x(141)#141  x(142)#142 
 x(143)#143  x(144)#144  x(145)#145  x(146)#146  x(147)#147  x(148)#148 
 x(149)#149  x(150)#150  x(151)#151  x(152)#152  x(153)#153  x(154)#154 
 x(155)#155  x(156)#156  x(157)#157  x(158)#158  x(159)#159  x(160)#160 
 x(161)#161  x(162)#162  x(163)#163  x(164)#164  x(165)#165  x(166)#166 
 x(167)#167  x(168)#168  x(169)#169  x(170)#170  x(171)#171  x(172)#172 
 x(173)#173  x(174)#174  x(175)#175  x(176)#176  x(177)#177  x(178)#178 
 x(179)#179  x(180)#180  x(181)#181  x(182)#182  x(183)#183  x(184)#184 
 x(185)#185  x(186)#186  x(187)#187  x(188)#188  x(189)#189  x(190)#190 
 x(191)#191  x(192)#192  x(193)#193  x(194)#194  x(195)#195  x(196)#196 
 x(197)#197  x(198)#198  x(199)#199  x(200)#200  x(201)#201  x(202)#202 
 x(203)#203  x(204)#204  x(205)#205  x(206)#206  x(207)#207  x(208)#208 
 x(209)#209  x(210)#210  x(211)#211  x(212)#212  x(213)#213  x(214)#214 
 x(215)#215  x(216)#216  x(217)#217  x(218)#218  x(219)#219  x(220)#220 
 x(221)#221  x(222)#222  x(223)#223  x(224)#224  x(225)#225  x(226)#226 
 x(227)#227  x(228)#228  x(229)#229  x(230)#230  x(231)#231  x(232)#232 
 x(233)#233  x(234)#234  x(235)#235  x(236)#236  x(237)#237  x(238)#238 
 x(239)#239  x(240)#240  x(241)#241  x(242)#242  x(243)#243  x(244)#244 
 x(245)#245  x(246)#246  x(247)#247  x(248)#248  x(249)#249 
End
